
Gurobi 12.0.3 (linux64) logging started Thu Aug 21 02:40:47 2025

Set parameter LogFile to value "logs/instance-03.txt"
Gurobi Optimizer version 12.0.3 build v12.0.3rc0 (linux64 - "Ubuntu 24.04.3 LTS")

CPU model: Intel(R) Core(TM) i5-8250U CPU @ 1.60GHz, instruction set [SSE2|AVX|AVX2]
Thread count: 4 physical cores, 8 logical processors, using up to 8 threads

Non-default parameters:
TimeLimit  900

Optimize a model with 925 rows, 325 columns and 2348 nonzeros
Model fingerprint: 0xa2f739e8
Variable types: 0 continuous, 325 integer (325 binary)
Coefficient statistics:
  Matrix range     [1e+00, 1e+00]
  Objective range  [1e+00, 1e+01]
  Bounds range     [1e+00, 1e+00]
  RHS range        [1e+00, 1e+00]
Found heuristic solution: objective 124.0000000
Presolve removed 460 rows and 11 columns
Presolve time: 0.01s
Presolved: 465 rows, 314 columns, 1255 nonzeros
Variable types: 0 continuous, 314 integer (314 binary)

Root relaxation: objective 4.290000e+02, 262 iterations, 0.00 seconds (0.00 work units)

    Nodes    |    Current Node    |     Objective Bounds      |     Work
 Expl Unexpl |  Obj  Depth IntInf | Incumbent    BestBd   Gap | It/Node Time

     0     0  429.00000    0  177  124.00000  429.00000   246%     -    0s
H    0     0                     266.0000000  429.00000  61.3%     -    0s
H    0     0                     269.0000000  429.00000  59.5%     -    0s
H    0     0                     276.0000000  429.00000  55.4%     -    0s
H    0     0                     281.0000000  285.70370  1.67%     -    0s
H    0     0                     283.0000000  285.70370  0.96%     -    0s
     0     0  283.71429    0  280  283.00000  283.71429  0.25%     -    0s

Cutting planes:
  Gomory: 1
  Zero half: 83
  RLT: 156
  BQP: 188

Explored 1 nodes (718 simplex iterations) in 0.14 seconds (0.07 work units)
Thread count was 8 (of 8 available processors)

Solution count 6: 283 281 276 ... 124

Optimal solution found (tolerance 1.00e-04)
Best objective 2.830000000000e+02, best bound 2.830000000000e+02, gap 0.0000%

Gurobi 12.0.3 (linux64) logging started Thu Aug 21 10:33:25 2025

Set parameter LogFile to value "logs/instance-03.txt"
Gurobi Optimizer version 12.0.3 build v12.0.3rc0 (linux64 - "Ubuntu 24.04.3 LTS")

CPU model: Intel(R) Core(TM) i5-8250U CPU @ 1.60GHz, instruction set [SSE2|AVX|AVX2]
Thread count: 4 physical cores, 8 logical processors, using up to 8 threads

Non-default parameters:
TimeLimit  600

Optimize a model with 925 rows, 325 columns and 2348 nonzeros
Model fingerprint: 0xa2f739e8
Variable types: 0 continuous, 325 integer (325 binary)
Coefficient statistics:
  Matrix range     [1e+00, 1e+00]
  Objective range  [1e+00, 1e+01]
  Bounds range     [1e+00, 1e+00]
  RHS range        [1e+00, 1e+00]
Found heuristic solution: objective 124.0000000
Presolve removed 460 rows and 11 columns
Presolve time: 0.01s
Presolved: 465 rows, 314 columns, 1255 nonzeros
Variable types: 0 continuous, 314 integer (314 binary)

Root relaxation: objective 4.290000e+02, 262 iterations, 0.01 seconds (0.00 work units)

    Nodes    |    Current Node    |     Objective Bounds      |     Work
 Expl Unexpl |  Obj  Depth IntInf | Incumbent    BestBd   Gap | It/Node Time

     0     0  429.00000    0  177  124.00000  429.00000   246%     -    0s
H    0     0                     266.0000000  429.00000  61.3%     -    0s
H    0     0                     269.0000000  429.00000  59.5%     -    0s
H    0     0                     276.0000000  429.00000  55.4%     -    0s
H    0     0                     281.0000000  285.70370  1.67%     -    0s
H    0     0                     283.0000000  285.70370  0.96%     -    0s
     0     0  283.71429    0  280  283.00000  283.71429  0.25%     -    0s

Cutting planes:
  Gomory: 1
  Zero half: 83
  RLT: 156
  BQP: 188

Explored 1 nodes (718 simplex iterations) in 0.16 seconds (0.07 work units)
Thread count was 8 (of 8 available processors)

Solution count 6: 283 281 276 ... 124

Optimal solution found (tolerance 1.00e-04)
Best objective 2.830000000000e+02, best bound 2.830000000000e+02, gap 0.0000%
